\ This file has been generated by DOcplex
\ ENCODING=ISO-8859-1
\Problem name: p-center

Minimize
 obj: 10 z_0 + 15 z_1 + 20 z_2
Subject To
 coverage_0_0: y_1 - z_0 >= 0
 coverage_0_1: y_1 - z_1 >= 0
 coverage_0_2: y_1 + y_2 - z_2 >= 0
 coverage_1_0: y_0 - z_0 >= 0
 coverage_1_1: y_0 + y_2 - z_1 >= 0
 coverage_1_2: y_0 + y_2 - z_2 >= 0
 coverage_2_0: - z_0 >= 0
 coverage_2_1: y_1 - z_1 >= 0
 coverage_2_2: y_0 + y_1 - z_2 >= 0
 facility_limit: y_0 + y_1 + y_2 = 1
 facility_A: y_0 = 1
 radius_selection: z_0 + z_1 + z_2 = 1

Bounds
 0 <= y_0 <= 1
 0 <= y_1 <= 1
 0 <= y_2 <= 1
 0 <= z_0 <= 1
 0 <= z_1 <= 1
 0 <= z_2 <= 1

Binaries
 y_0 y_1 y_2 z_0 z_1 z_2
End
